c is-sat
p cnf 10 72
7 -9 2 0
7 -10 -4 0
6 -1 -7 0
9 -3 5 0
8 4 -5 0
-3 -10 -4 0
-8 1 -9 0
-10 -6 5 0
-8 -5 3 0
7 -3 -9 0
-1 7 9 0
-9 -2 -1 0
-1 9 -2 0
-2 1 -3 0
-6 5 -2 0
3 -5 -4 0
-8 -5 1 0
8 -2 -9 0
-3 -8 -5 0
7 3 4 0
1 9 6 0
-9 6 -8 0
10 -3 -2 0
-10 -2 -9 0
5 -7 -9 0
-2 -10 -5 0
-6 -10 8 0
3 -10 1 0
-4 -10 7 0
-10 2 -3 0
6 -4 3 0
-1 9 4 0
-10 6 -2 0
5 10 -1 0
-6 -5 -2 0
-6 5 -7 0
-5 -8 4 0
-5 -9 -2 0
-10 -6 8 0
4 10 -8 0
-2 7 -10 0
-6 -8 -7 0
-7 -2 -3 0
-2 -4 6 0
-5 6 3 0
10 -7 -5 0
5 -10 -7 0
-2 -4 6 0
-6 -2 -9 0
-10 1 -3 0
-8 -1 7 0
-2 -9 -6 0
-7 -4 -8 0
-7 -9 -10 0
-4 -2 -10 0
-3 -1 -5 0
-2 -9 -6 0
7 4 9 0
-5 -1 -3 0
4 -2 -8 0
-10 3 -6 0
8 -1 -5 0
-4 -6 -5 0
5 -2 -9 0
-8 -2 6 0
-3 -5 -9 0
-4 -9 -7 0
-4 -9 3 0
3 -8 4 0
-8 6 -10 0
-5 -7 -8 0
6 -7 9 0
